NAME          DCAP_3_3_2_300_SS154
ROWS
 N  OBJ
 L  CON1
 L  CON2
 L  CON3
 L  CON4
 L  CON5
 L  CON6
 L  CON7
 L  CON8
 L  CON9
 L  CON10
 L  CON11
 L  CON12
 E  CON13
 E  CON14
 E  CON15
 E  CON16
 E  CON17
 E  CON18
COLUMNS
    x[1,1]    OBJ       6.180167      CON1      1.000000    
    x[1,1]    CON7      -1.000000     CON8      -1.000000   
    x[1,2]    OBJ       5.039546      CON2      1.000000    
    x[1,2]    CON8      -1.000000   
    x[2,1]    OBJ       6.732585      CON3      1.000000    
    x[2,1]    CON9      -1.000000     CON10     -1.000000   
    x[2,2]    OBJ       7.443064      CON4      1.000000    
    x[2,2]    CON10     -1.000000   
    x[3,1]    OBJ       6.563535      CON5      1.000000    
    x[3,1]    CON11     -1.000000     CON12     -1.000000   
    x[3,2]    OBJ       6.054841      CON6      1.000000    
    x[3,2]    CON12     -1.000000   
    MARKER    'MARKER'                'INTORG'
    u[1,1]    OBJ       48.076654     CON1      -1.000000   
    u[1,2]    OBJ       49.466655     CON2      -1.000000   
    u[2,1]    OBJ       49.996186     CON3      -1.000000   
    u[2,2]    OBJ       32.230043     CON4      -1.000000   
    u[3,1]    OBJ       20.066487     CON5      -1.000000   
    u[3,2]    OBJ       27.484319     CON6      -1.000000   
    y[1,1,1]  OBJ       5.958671      CON7      1.061843    
    y[1,1,1]  CON13     1.000000    
    y[1,1,2]  OBJ       7.439009      CON8      1.253738    
    y[1,1,2]  CON14     1.000000    
    y[1,2,1]  OBJ       6.759060      CON7      1.064644    
    y[1,2,1]  CON15     1.000000    
    y[1,2,2]  OBJ       5.379063      CON8      0.797271    
    y[1,2,2]  CON16     1.000000    
    y[1,3,1]  OBJ       6.980023      CON7      1.090737    
    y[1,3,1]  CON17     1.000000    
    y[1,3,2]  OBJ       5.774148      CON8      0.662673    
    y[1,3,2]  CON18     1.000000    
    y[2,1,1]  OBJ       6.560087      CON9      1.061843    
    y[2,1,1]  CON13     1.000000    
    y[2,1,2]  OBJ       9.973347      CON10     1.253738    
    y[2,1,2]  CON14     1.000000    
    y[2,2,1]  OBJ       7.050632      CON9      1.064644    
    y[2,2,1]  CON15     1.000000    
    y[2,2,2]  OBJ       6.051607      CON10     0.797271    
    y[2,2,2]  CON16     1.000000    
    y[2,3,1]  OBJ       8.908429      CON9      1.090737    
    y[2,3,1]  CON17     1.000000    
    y[2,3,2]  OBJ       8.725996      CON10     0.662673    
    y[2,3,2]  CON18     1.000000    
    y[3,1,1]  OBJ       6.103338      CON11     1.061843    
    y[3,1,1]  CON13     1.000000    
    y[3,1,2]  OBJ       9.627099      CON12     1.253738    
    y[3,1,2]  CON14     1.000000    
    y[3,2,1]  OBJ       8.157249      CON11     1.064644    
    y[3,2,1]  CON15     1.000000    
    y[3,2,2]  OBJ       7.347206      CON12     0.797271    
    y[3,2,2]  CON16     1.000000    
    y[3,3,1]  OBJ       9.380215      CON11     1.090737    
    y[3,3,1]  CON17     1.000000    
    y[3,3,2]  OBJ       8.660106      CON12     0.662673    
    y[3,3,2]  CON18     1.000000    
    z[1,1]    OBJ       693.237807    CON13     1.000000    
    z[1,2]    OBJ       503.682116    CON14     1.000000    
    z[2,1]    OBJ       549.206570    CON15     1.000000    
    z[2,2]    OBJ       901.564954    CON16     1.000000    
    z[3,1]    OBJ       805.720383    CON17     1.000000    
    z[3,2]    OBJ       761.490932    CON18     1.000000    
    MARKER    'MARKER'                 'INTEND'
RHS
    RHS       CON1      -0.000000     CON2      -0.000000   
    RHS       CON3      -0.000000     CON4      -0.000000   
    RHS       CON5      -0.000000     CON6      -0.000000   
    RHS       CON7      -0.000000     CON8      -0.000000   
    RHS       CON9      -0.000000     CON10     -0.000000   
    RHS       CON11     -0.000000     CON12     -0.000000   
    RHS       CON13     1.000000      CON14     1.000000    
    RHS       CON15     1.000000      CON16     1.000000    
    RHS       CON17     1.000000      CON18     1.000000    
BOUNDS
 BV BOUND     u[1,1]  
 BV BOUND     u[1,2]  
 BV BOUND     u[2,1]  
 BV BOUND     u[2,2]  
 BV BOUND     u[3,1]  
 BV BOUND     u[3,2]  
 BV BOUND     y[1,1,1]
 BV BOUND     y[1,1,2]
 BV BOUND     y[1,2,1]
 BV BOUND     y[1,2,2]
 BV BOUND     y[1,3,1]
 BV BOUND     y[1,3,2]
 BV BOUND     y[2,1,1]
 BV BOUND     y[2,1,2]
 BV BOUND     y[2,2,1]
 BV BOUND     y[2,2,2]
 BV BOUND     y[2,3,1]
 BV BOUND     y[2,3,2]
 BV BOUND     y[3,1,1]
 BV BOUND     y[3,1,2]
 BV BOUND     y[3,2,1]
 BV BOUND     y[3,2,2]
 BV BOUND     y[3,3,1]
 BV BOUND     y[3,3,2]
 BV BOUND     z[1,1]  
 BV BOUND     z[1,2]  
 BV BOUND     z[2,1]  
 BV BOUND     z[2,2]  
 BV BOUND     z[3,1]  
 BV BOUND     z[3,2]  
ENDATA
